/**********************************************
* Author: Adrien BLASSIAU Corentin JUVIGNY
* Creation Date: Wed, 18 Mar 2020 23:12:01
*********************************************/

T=10;
M=4;
R=5;
Emax=[3, 3, 3, 3, 3, 3, 3, 3, 3, 3];
f=[[10, 30, 60, 90],[10, 30, 60, 90],[10, 30, 60, 90],[10, 30, 60, 90],[10, 30, 60, 90],[10, 30, 60, 90],[10, 30, 60, 90],[10, 30, 60, 90],[10, 30, 60, 90],[10, 30, 60, 90]];
e=[[8, 6, 4, 2],[8, 6, 4, 2],[8, 6, 4, 2],[8, 6, 4, 2],[8, 6, 4, 2],[8, 6, 4, 2],[8, 6, 4, 2],[8, 6, 4, 2],[8, 6, 4, 2],[8, 6, 4, 2]];
h=[1, 1, 1, 1, 1, 1, 1, 1, 1, 1];
p=[[0, 0, 0, 0],[0, 0, 0, 0],[0, 0, 0, 0],[0, 0, 0, 0],[0, 0, 0, 0],[0, 0, 0, 0],[0, 0, 0, 0],[0, 0, 0, 0],[0, 0, 0, 0],[0, 0, 0, 0]];
d=[48, 34, 35, 69, 43, 70, 45, 62, 41, 25];
